c n orig vars 78
p cnf 80 152
1 2 -79 0
3 4 -79 0
5 6 -79 0
7 8 -79 0
9 10 -79 0
11 12 -79 0
13 14 -79 0
15 16 -79 0
17 18 -79 0
19 20 -79 0
21 22 -79 0
23 24 -79 0
25 26 -79 0
27 28 -79 0
29 30 -79 0
31 32 -79 0
33 34 -79 0
35 36 -79 0
37 44 51 58 65 72 -80 0
38 45 52 59 66 73 -80 0
39 46 53 60 67 74 -80 0
40 47 54 61 68 75 -80 0
41 48 55 62 69 76 -80 0
42 49 56 63 70 77 -80 0
43 50 57 64 71 78 -80 0
-37 -38 -80 0
-37 -39 -80 0
-37 -40 -80 0
-37 -41 -80 0
-37 -42 -80 0
-37 -43 -80 0
-38 -39 -80 0
-38 -40 -80 0
-38 -41 -80 0
-38 -42 -80 0
-38 -43 -80 0
-39 -40 -80 0
-39 -41 -80 0
-39 -42 -80 0
-39 -43 -80 0
-40 -41 -80 0
-40 -42 -80 0
-40 -43 -80 0
-41 -42 -80 0
-41 -43 -80 0
-42 -43 -80 0
-44 -45 -80 0
-44 -46 -80 0
-44 -47 -80 0
-44 -48 -80 0
-44 -49 -80 0
-44 -50 -80 0
-45 -46 -80 0
-45 -47 -80 0
-45 -48 -80 0
-45 -49 -80 0
-45 -50 -80 0
-46 -47 -80 0
-46 -48 -80 0
-46 -49 -80 0
-46 -50 -80 0
-47 -48 -80 0
-47 -49 -80 0
-47 -50 -80 0
-48 -49 -80 0
-48 -50 -80 0
-49 -50 -80 0
-51 -52 -80 0
-51 -53 -80 0
-51 -54 -80 0
-51 -55 -80 0
-51 -56 -80 0
-51 -57 -80 0
-52 -53 -80 0
-52 -54 -80 0
-52 -55 -80 0
-52 -56 -80 0
-52 -57 -80 0
-53 -54 -80 0
-53 -55 -80 0
-53 -56 -80 0
-53 -57 -80 0
-54 -55 -80 0
-54 -56 -80 0
-54 -57 -80 0
-55 -56 -80 0
-55 -57 -80 0
-56 -57 -80 0
-58 -59 -80 0
-58 -60 -80 0
-58 -61 -80 0
-58 -62 -80 0
-58 -63 -80 0
-58 -64 -80 0
-59 -60 -80 0
-59 -61 -80 0
-59 -62 -80 0
-59 -63 -80 0
-59 -64 -80 0
-60 -61 -80 0
-60 -62 -80 0
-60 -63 -80 0
-60 -64 -80 0
-61 -62 -80 0
-61 -63 -80 0
-61 -64 -80 0
-62 -63 -80 0
-62 -64 -80 0
-63 -64 -80 0
-65 -66 -80 0
-65 -67 -80 0
-65 -68 -80 0
-65 -69 -80 0
-65 -70 -80 0
-65 -71 -80 0
-66 -67 -80 0
-66 -68 -80 0
-66 -69 -80 0
-66 -70 -80 0
-66 -71 -80 0
-67 -68 -80 0
-67 -69 -80 0
-67 -70 -80 0
-67 -71 -80 0
-68 -69 -80 0
-68 -70 -80 0
-68 -71 -80 0
-69 -70 -80 0
-69 -71 -80 0
-70 -71 -80 0
-72 -73 -80 0
-72 -74 -80 0
-72 -75 -80 0
-72 -76 -80 0
-72 -77 -80 0
-72 -78 -80 0
-73 -74 -80 0
-73 -75 -80 0
-73 -76 -80 0
-73 -77 -80 0
-73 -78 -80 0
-74 -75 -80 0
-74 -76 -80 0
-74 -77 -80 0
-74 -78 -80 0
-75 -76 -80 0
-75 -77 -80 0
-75 -78 -80 0
-76 -77 -80 0
-76 -78 -80 0
-77 -78 -80 0
79 80 0
